(set-logic QF_S)
(declare-fun var0 () String)
(assert (str.in.re var0 (re.++ (re.+ (re.* (str.to.re "000"))) (re.++ (re.* (re.union (str.to.re "1") (str.to.re "22"))) (re.++ (re.+ (re.union (str.to.re "33") (str.to.re "44"))) (re.++ (re.union (re.+ (str.to.re "5")) (re.+ (str.to.re "6"))) (re.++ (re.+ (re.* (str.to.re "77"))) (re.++ (re.+ (re.+ (str.to.re "888"))) (re.++ (re.+ (re.+ (str.to.re "99"))) (re.++ (re.union (re.* (str.to.re "aaa")) (re.* (str.to.re "b"))) (re.++ (re.* (re.* (str.to.re "cc"))) (re.++ (re.* (re.union (str.to.re "dd") (str.to.re "ee"))) (re.++ (re.+ (re.* (str.to.re "ff"))) (re.++ (re.union (re.+ (str.to.re "ggg")) (re.+ (str.to.re "hhh"))) (re.++ (re.union (re.+ (str.to.re "ii")) (re.+ (str.to.re "jj"))) (re.++ (re.* (re.+ (str.to.re "kk"))) (re.++ (re.union (re.* (str.to.re "lll")) (re.* (str.to.re "mm"))) (re.++ (re.+ (re.+ (str.to.re "nnn"))) (re.++ (re.+ (re.union (str.to.re "oo") (str.to.re "p"))) (re.++ (re.+ (re.+ (str.to.re "q"))) (re.++ (re.union (re.union (str.to.re "r") (str.to.re "ss")) (re.union (str.to.re "ttt") (str.to.re "u"))) (re.++ (re.* (re.+ (str.to.re "vv"))) (re.++ (re.+ (re.* (str.to.re "ww"))) (re.++ (re.+ (re.* (str.to.re "xx"))) (re.++ (re.+ (re.+ (str.to.re "yyy"))) (re.++ (re.+ (re.union (str.to.re "z") (str.to.re "AA"))) (re.++ (re.+ (re.union (str.to.re "BB") (str.to.re "CC"))) (re.++ (re.union (re.union (str.to.re "D") (str.to.re "E")) (re.union (str.to.re "FF") (str.to.re "G"))) (re.++ (re.union (re.* (str.to.re "HHH")) (re.* (str.to.re "II"))) (re.++ (re.* (re.union (str.to.re "JJJ") (str.to.re "KK"))) (re.++ (re.* (re.+ (str.to.re "LL"))) (re.++ (re.+ (re.+ (str.to.re "MM"))) (re.++ (re.union (re.+ (str.to.re "N")) (re.+ (str.to.re "OO"))) (re.++ (re.* (re.* (str.to.re "P"))) (re.++ (re.* (re.union (str.to.re "QQQ") (str.to.re "RR"))) (re.++ (re.+ (re.* (str.to.re "SS"))) (re.++ (re.+ (re.* (str.to.re "TTT"))) (re.++ (re.* (re.* (str.to.re "UU"))) (re.++ (re.* (re.* (str.to.re "VVV"))) (re.++ (re.+ (re.+ (str.to.re "W"))) (re.++ (re.+ (re.union (str.to.re "XXX") (str.to.re "Y"))) (re.++ (re.+ (re.union (str.to.re "Z") (str.to.re "!!"))) (re.++ (re.+ (re.union (str.to.re """""""") (str.to.re "###"))) (re.++ (re.+ (re.* (str.to.re "$"))) (re.++ (re.* (re.union (str.to.re "%%") (str.to.re "&&"))) (re.++ (re.* (re.* (str.to.re "'"))) (re.++ (re.+ (re.union (str.to.re "(((") (str.to.re ")))"))) (re.++ (re.union (re.+ (str.to.re "*")) (re.+ (str.to.re "+"))) (re.++ (re.* (re.union (str.to.re ",,") (str.to.re "-"))) (re.++ (re.+ (re.+ (str.to.re "."))) (re.++ (re.union (re.* (str.to.re "/")) (re.* (str.to.re ":"))) (re.++ (re.* (re.+ (str.to.re ";;;"))) (re.++ (re.* (re.union (str.to.re "<<<") (str.to.re "==="))) (re.++ (re.union (re.+ (str.to.re ">")) (re.+ (str.to.re "???"))) (re.++ (re.union (re.+ (str.to.re "@")) (re.+ (str.to.re "[[["))) (re.++ (re.* (re.union (str.to.re "\\\\\\") (str.to.re "]]]"))) (re.++ (re.* (re.+ (str.to.re "^"))) (re.++ (re.* (re.+ (str.to.re "_"))) (re.++ (re.* (re.union (str.to.re "```") (str.to.re "{{"))) (re.++ (re.* (re.+ (str.to.re "||"))) (re.++ (re.+ (re.+ (str.to.re "}"))) (re.++ (re.+ (re.+ (str.to.re "~"))) (re.++ (re.union (re.* (str.to.re "00")) (re.* (str.to.re "111"))) (re.++ (re.* (re.* (str.to.re "222"))) (re.++ (re.union (re.+ (str.to.re "333")) (re.+ (str.to.re "4"))) (re.++ (re.* (re.* (str.to.re "555"))) (re.++ (re.+ (re.union (str.to.re "6") (str.to.re "777"))) (re.++ (re.union (re.+ (str.to.re "888")) (re.+ (str.to.re "999"))) (re.++ (re.union (re.+ (str.to.re "aaa")) (re.+ (str.to.re "bbb"))) (re.++ (re.+ (re.+ (str.to.re "ccc"))) (re.++ (re.+ (re.union (str.to.re "ddd") (str.to.re "ee"))) (re.++ (re.+ (re.* (str.to.re "f"))) (re.++ (re.union (re.union (str.to.re "ggg") (str.to.re "h")) (re.union (str.to.re "ii") (str.to.re "jjj"))) (re.++ (re.* (re.union (str.to.re "k") (str.to.re "ll"))) (re.++ (re.+ (re.union (str.to.re "mmm") (str.to.re "n"))) (re.++ (re.+ (re.* (str.to.re "oo"))) (re.++ (re.+ (re.* (str.to.re "p"))) (re.++ (re.* (re.* (str.to.re "qq"))) (re.++ (re.union (re.+ (str.to.re "rrr")) (re.+ (str.to.re "ss"))) (re.++ (re.+ (re.union (str.to.re "tt") (str.to.re "uuu"))) (re.++ (re.* (re.union (str.to.re "vv") (str.to.re "w"))) (re.++ (re.union (re.union (str.to.re "x") (str.to.re "yyy")) (re.union (str.to.re "zzz") (str.to.re "AAA"))) (re.++ (re.+ (re.+ (str.to.re "BBB"))) (re.++ (re.union (re.union (str.to.re "C") (str.to.re "DD")) (re.union (str.to.re "E") (str.to.re "FF"))) (re.++ (re.+ (re.+ (str.to.re "GG"))) (re.++ (re.* (re.+ (str.to.re "HHH"))) (re.++ (re.+ (re.union (str.to.re "II") (str.to.re "J"))) (re.++ (re.union (re.union (str.to.re "KKK") (str.to.re "LL")) (re.union (str.to.re "MM") (str.to.re "N"))) (re.++ (re.union (re.* (str.to.re "OO")) (re.* (str.to.re "PPP"))) (re.++ (re.+ (re.union (str.to.re "Q") (str.to.re "RR"))) (re.++ (re.* (re.+ (str.to.re "S"))) (re.++ (re.* (re.union (str.to.re "TTT") (str.to.re "U"))) (re.++ (re.union (re.+ (str.to.re "V")) (re.+ (str.to.re "W"))) (re.++ (re.* (re.union (str.to.re "XX") (str.to.re "Y"))) (re.++ (re.* (re.+ (str.to.re "ZZ"))) (re.++ (re.* (re.+ (str.to.re "!!"))) (re.++ (re.* (re.union (str.to.re """""""") (str.to.re "##"))) (re.++ (re.+ (re.* (str.to.re "$$$"))) (re.++ (re.union (re.* (str.to.re "%%%")) (re.* (str.to.re "&&"))) (re.++ (re.* (re.union (str.to.re "''") (str.to.re "(("))) (re.++ (re.* (re.union (str.to.re "))") (str.to.re "*"))) (re.++ (re.union (re.+ (str.to.re "++")) (re.+ (str.to.re ","))) (re.++ (re.+ (re.union (str.to.re "---") (str.to.re ".."))) (re.++ (re.* (re.+ (str.to.re "///"))) (re.++ (re.union (re.union (str.to.re "::") (str.to.re ";")) (re.union (str.to.re "<<") (str.to.re "="))) (re.++ (re.+ (re.union (str.to.re ">>") (str.to.re "??"))) (re.++ (re.* (re.union (str.to.re "@@") (str.to.re "[["))) (re.++ (re.* (re.* (str.to.re "\\\\"))) (re.++ (re.union (re.* (str.to.re "]]]")) (re.* (str.to.re "^^"))) (re.++ (re.union (re.* (str.to.re "_")) (re.* (str.to.re "```"))) (re.++ (re.* (re.* (str.to.re "{{"))) (re.++ (re.+ (re.union (str.to.re "|") (str.to.re "}"))) (re.++ (re.union (re.* (str.to.re "~~~")) (re.* (str.to.re "00"))) (re.++ (re.+ (re.* (str.to.re "111"))) (re.++ (re.union (re.union (str.to.re "22") (str.to.re "3")) (re.union (str.to.re "444") (str.to.re "55"))) (re.++ (re.union (re.union (str.to.re "66") (str.to.re "77")) (re.union (str.to.re "888") (str.to.re "999"))) (re.++ (re.union (re.+ (str.to.re "a")) (re.+ (str.to.re "bbb"))) (re.++ (re.* (re.* (str.to.re "ccc"))) (re.++ (re.+ (re.union (str.to.re "d") (str.to.re "ee"))) (re.++ (re.+ (re.+ (str.to.re "ff"))) (re.++ (re.union (re.union (str.to.re "ggg") (str.to.re "hhh")) (re.union (str.to.re "i") (str.to.re "jj"))) (re.++ (re.* (re.union (str.to.re "kkk") (str.to.re "ll"))) (re.++ (re.union (re.* (str.to.re "mmm")) (re.* (str.to.re "nnn"))) (re.++ (re.* (re.union (str.to.re "oo") (str.to.re "p"))) (re.++ (re.* (re.union (str.to.re "qq") (str.to.re "rrr"))) (re.++ (re.+ (re.* (str.to.re "s"))) (re.++ (re.+ (re.* (str.to.re "t"))) (re.++ (re.union (re.+ (str.to.re "u")) (re.+ (str.to.re "vvv"))) (re.++ (re.* (re.union (str.to.re "ww") (str.to.re "xxx"))) (re.++ (re.union (re.union (str.to.re "yy") (str.to.re "zzz")) (re.union (str.to.re "AAA") (str.to.re "B"))) (re.++ (re.+ (re.+ (str.to.re "CCC"))) (re.++ (re.union (re.union (str.to.re "D") (str.to.re "E")) (re.union (str.to.re "FFF") (str.to.re "GGG"))) (re.++ (re.* (re.+ (str.to.re "HH"))) (re.++ (re.+ (re.+ (str.to.re "I"))) (re.++ (re.union (re.union (str.to.re "JJJ") (str.to.re "K")) (re.union (str.to.re "LL") (str.to.re "M"))) (re.++ (re.* (re.+ (str.to.re "NN"))) (re.++ (re.union (re.union (str.to.re "OO") (str.to.re "PPP")) (re.union (str.to.re "Q") (str.to.re "R"))) (re.++ (re.+ (re.+ (str.to.re "SSS"))) (re.++ (re.union (re.union (str.to.re "T") (str.to.re "UUU")) (re.union (str.to.re "VV") (str.to.re "W"))) (re.++ (re.* (re.* (str.to.re "XXX"))) (re.++ (re.+ (re.* (str.to.re "Y"))) (re.++ (re.union (re.* (str.to.re "Z")) (re.* (str.to.re "!"))) (re.++ (re.+ (re.* (str.to.re """"))) (re.++ (re.+ (re.* (str.to.re "###"))) (re.++ (re.union (re.* (str.to.re "$$$")) (re.* (str.to.re "%%"))) (re.++ (re.* (re.union (str.to.re "&") (str.to.re "'''"))) (re.++ (re.+ (re.union (str.to.re "(") (str.to.re ")"))) (re.++ (re.union (re.+ (str.to.re "**")) (re.+ (str.to.re "+++"))) (re.++ (re.+ (re.+ (str.to.re ",,"))) (re.+ (re.* (str.to.re "-"))))))))))))))))))))))))))))))))))))))))))))))))))))))))))))))))))))))))))))))))))))))))))))))))))))))))))))))))))))))))))))))))))))))))))))))))))))))))
(check-sat)